
Gurobi 10.0.1 (linux64) logging started Sun Nov 26 16:07:52 2023

Set parameter LogFile to value "ArtificialInstance/ExperimentV2/S3T4K3/AdRo/gurobiDoRo50.txt"
Gurobi Optimizer version 10.0.1 build v10.0.1rc0 (linux64)

CPU model: AMD EPYC 7H12 64-Core Processor, instruction set [SSE2|AVX|AVX2]
Thread count: 128 physical cores, 128 logical processors, using up to 32 threads

Academic license 656792 - for non-commercial use only - registered to b.___@student.vu.nl
Optimize a model with 17363 rows, 16345 columns and 63549 nonzeros
Model fingerprint: 0xc882cd28
Variable types: 1 continuous, 16344 integer (16344 binary)
Coefficient statistics:
  Matrix range     [1e+00, 4e+01]
  Objective range  [1e+00, 2e+01]
  Bounds range     [1e+00, 1e+00]
  RHS range        [1e+00, 1e+00]
Presolve removed 7836 rows and 7404 columns
Presolve time: 0.21s
Presolved: 9527 rows, 8941 columns, 34587 nonzeros
Variable types: 1 continuous, 8940 integer (8940 binary)

Root relaxation: objective 9.646783e+01, 2484 iterations, 0.11 seconds (0.08 work units)

    Nodes    |    Current Node    |     Objective Bounds      |     Work
 Expl Unexpl |  Obj  Depth IntInf | Incumbent    BestBd   Gap | It/Node Time

     0     0   96.46783    0   15          -   96.46783      -     -    0s
H    0     0                      96.4678348   96.46783  0.00%     -    0s

Explored 1 nodes (4566 simplex iterations) in 0.53 seconds (0.38 work units)
Thread count was 32 (of 128 available processors)

Solution count 1: 96.4678 

Optimal solution found (tolerance 1.00e-04)
Best objective 9.646783481415e+01, best bound 9.646783481415e+01, gap 0.0000%
